42 42
2 7
6 8
7 4
3 7
10 10
4 10
8 5
10 8
5 6
10 10
2 9
6 9
6 9
5 2
8 8
8 2
4 6
10 7
5 10
6 5
7 9
1 6
10 7
3 4
7 9
5 7
2 2
4 4
7 7
4 2
3 2
2 2
6 10
5 8
9 10
3 4
6 2
5 10
6 7
2 7
7 9
3 9
15 17 89
11 10 59
15 19 83
14 15 74
15 18 72
19 10 59
19 14 100
11 12 75
11 15 66
20 12 80
16 20 80
12 14 79
16 18 96
17 16 83
18 12 74
20 14 89
10 11 66
18 14 52
20 12 57
20 15 75
13 19 55
15 10 71
16 12 97
18 19 92
13 16 82
18 13 80
10 19 90
16 12 63
12 19 89
19 18 97
12 20 74
11 10 65
16 19 54
14 18 50
20 18 92
13 19 95
14 12 51
12 10 78
15 10 80
18 17 64
19 14 95
17 10 52
